(set-logic QF_S)
(declare-fun var0 () String)
(assert (RegexIn var0 (RegexConcat (RegexUnion (RegexUnion (Str2Reg "000") (Str2Reg "1")) (RegexUnion (Str2Reg "2") (Str2Reg "33"))) (RegexConcat (RegexPlus (RegexUnion (Str2Reg "44") (Str2Reg "5"))) (RegexConcat (RegexStar (RegexStar (Str2Reg "6"))) (RegexConcat (RegexStar (RegexPlus (Str2Reg "77"))) (RegexConcat (RegexPlus (RegexUnion (Str2Reg "88") (Str2Reg "9"))) (RegexConcat (RegexPlus (RegexUnion (Str2Reg "aaa") (Str2Reg "bb"))) (RegexConcat (RegexUnion (RegexUnion (Str2Reg "ccc") (Str2Reg "ddd")) (RegexUnion (Str2Reg "e") (Str2Reg "f"))) (RegexConcat (RegexStar (RegexUnion (Str2Reg "ggg") (Str2Reg "hhh"))) (RegexConcat (RegexUnion (RegexPlus (Str2Reg "iii")) (RegexPlus (Str2Reg "j"))) (RegexConcat (RegexStar (RegexStar (Str2Reg "k"))) (RegexConcat (RegexStar (RegexUnion (Str2Reg "ll") (Str2Reg "mm"))) (RegexConcat (RegexStar (RegexPlus (Str2Reg "n"))) (RegexConcat (RegexStar (RegexUnion (Str2Reg "ooo") (Str2Reg "pp"))) (RegexConcat (RegexStar (RegexUnion (Str2Reg "qq") (Str2Reg "r"))) (RegexConcat (RegexStar (RegexUnion (Str2Reg "sss") (Str2Reg "ttt"))) (RegexConcat (RegexStar (RegexPlus (Str2Reg "uu"))) (RegexConcat (RegexUnion (RegexUnion (Str2Reg "v") (Str2Reg "www")) (RegexUnion (Str2Reg "xx") (Str2Reg "y"))) (RegexConcat (RegexUnion (RegexPlus (Str2Reg "z")) (RegexPlus (Str2Reg "AA"))) (RegexConcat (RegexUnion (RegexUnion (Str2Reg "B") (Str2Reg "CCC")) (RegexUnion (Str2Reg "D") (Str2Reg "EE"))) (RegexConcat (RegexPlus (RegexStar (Str2Reg "FFF"))) (RegexConcat (RegexUnion (RegexStar (Str2Reg "GG")) (RegexStar (Str2Reg "HH"))) (RegexConcat (RegexPlus (RegexPlus (Str2Reg "I"))) (RegexConcat (RegexPlus (RegexStar (Str2Reg "J"))) (RegexConcat (RegexStar (RegexPlus (Str2Reg "KKK"))) (RegexConcat (RegexUnion (RegexPlus (Str2Reg "LL")) (RegexPlus (Str2Reg "M"))) (RegexConcat (RegexPlus (RegexStar (Str2Reg "NN"))) (RegexConcat (RegexPlus (RegexUnion (Str2Reg "O") (Str2Reg "PP"))) (RegexConcat (RegexStar (RegexPlus (Str2Reg "QQ"))) (RegexConcat (RegexStar (RegexStar (Str2Reg "RR"))) (RegexConcat (RegexUnion (RegexUnion (Str2Reg "SS") (Str2Reg "TTT")) (RegexUnion (Str2Reg "U") (Str2Reg "V"))) (RegexConcat (RegexStar (RegexUnion (Str2Reg "W") (Str2Reg "XXX"))) (RegexConcat (RegexPlus (RegexUnion (Str2Reg "Y") (Str2Reg "ZZ"))) (RegexConcat (RegexPlus (RegexPlus (Str2Reg "!"))) (RegexConcat (RegexUnion (RegexPlus (Str2Reg "\"")) (RegexPlus (Str2Reg "##"))) (RegexConcat (RegexStar (RegexStar (Str2Reg "$$"))) (RegexConcat (RegexStar (RegexPlus (Str2Reg "%%%"))) (RegexConcat (RegexStar (RegexUnion (Str2Reg "&&&") (Str2Reg "'"))) (RegexConcat (RegexStar (RegexUnion (Str2Reg "(") (Str2Reg "))"))) (RegexConcat (RegexPlus (RegexUnion (Str2Reg "*") (Str2Reg "+"))) (RegexConcat (RegexUnion (RegexStar (Str2Reg ",,")) (RegexStar (Str2Reg "-"))) (RegexConcat (RegexPlus (RegexStar (Str2Reg "..."))) (RegexConcat (RegexStar (RegexUnion (Str2Reg "///") (Str2Reg ":"))) (RegexConcat (RegexStar (RegexStar (Str2Reg ";;"))) (RegexConcat (RegexPlus (RegexPlus (Str2Reg "<"))) (RegexConcat (RegexUnion (RegexStar (Str2Reg "===")) (RegexStar (Str2Reg ">>"))) (RegexConcat (RegexPlus (RegexUnion (Str2Reg "??") (Str2Reg "@@@"))) (RegexConcat (RegexStar (RegexUnion (Str2Reg "[[") (Str2Reg "\\\\\\"))) (RegexConcat (RegexStar (RegexUnion (Str2Reg "]]") (Str2Reg "^^"))) (RegexConcat (RegexStar (RegexStar (Str2Reg "_"))) (RegexConcat (RegexPlus (RegexPlus (Str2Reg "`"))) (RegexConcat (RegexUnion (RegexPlus (Str2Reg "{{")) (RegexPlus (Str2Reg "|"))) (RegexConcat (RegexStar (RegexUnion (Str2Reg "}}}") (Str2Reg "~~"))) (RegexConcat (RegexPlus (RegexStar (Str2Reg "00"))) (RegexConcat (RegexUnion (RegexPlus (Str2Reg "1")) (RegexPlus (Str2Reg "222"))) (RegexConcat (RegexPlus (RegexUnion (Str2Reg "3") (Str2Reg "444"))) (RegexConcat (RegexStar (RegexPlus (Str2Reg "5"))) (RegexConcat (RegexUnion (RegexPlus (Str2Reg "6")) (RegexPlus (Str2Reg "777"))) (RegexConcat (RegexPlus (RegexPlus (Str2Reg "8"))) (RegexConcat (RegexStar (RegexStar (Str2Reg "9"))) (RegexConcat (RegexUnion (RegexUnion (Str2Reg "aaa") (Str2Reg "bbb")) (RegexUnion (Str2Reg "cc") (Str2Reg "dd"))) (RegexUnion (RegexStar (Str2Reg "eee")) (RegexStar (Str2Reg "f")))))))))))))))))))))))))))))))))))))))))))))))))))))))))))))))))
(assert (not (RegexIn var0 (RegexConcat (RegexUnion (RegexStar (Str2Reg "00")) (RegexStar (Str2Reg "111"))) (RegexConcat (RegexStar (RegexUnion (Str2Reg "22") (Str2Reg "33"))) (RegexConcat (RegexPlus (RegexPlus (Str2Reg "44"))) (RegexConcat (RegexStar (RegexPlus (Str2Reg "555"))) (RegexConcat (RegexStar (RegexUnion (Str2Reg "6") (Str2Reg "77"))) (RegexConcat (RegexPlus (RegexStar (Str2Reg "8"))) (RegexConcat (RegexStar (RegexUnion (Str2Reg "9") (Str2Reg "a"))) (RegexConcat (RegexUnion (RegexStar (Str2Reg "bb")) (RegexStar (Str2Reg "c"))) (RegexConcat (RegexPlus (RegexPlus (Str2Reg "ddd"))) (RegexConcat (RegexPlus (RegexUnion (Str2Reg "ee") (Str2Reg "ff"))) (RegexConcat (RegexPlus (RegexPlus (Str2Reg "gg"))) (RegexConcat (RegexPlus (RegexPlus (Str2Reg "hh"))) (RegexConcat (RegexPlus (RegexStar (Str2Reg "iii"))) (RegexConcat (RegexPlus (RegexUnion (Str2Reg "jjj") (Str2Reg "kk"))) (RegexConcat (RegexStar (RegexPlus (Str2Reg "ll"))) (RegexConcat (RegexUnion (RegexPlus (Str2Reg "mmm")) (RegexPlus (Str2Reg "n"))) (RegexConcat (RegexUnion (RegexUnion (Str2Reg "ooo") (Str2Reg "pp")) (RegexUnion (Str2Reg "q") (Str2Reg "r"))) (RegexConcat (RegexStar (RegexStar (Str2Reg "s"))) (RegexConcat (RegexStar (RegexStar (Str2Reg "t"))) (RegexConcat (RegexPlus (RegexUnion (Str2Reg "u") (Str2Reg "v"))) (RegexConcat (RegexUnion (RegexUnion (Str2Reg "w") (Str2Reg "xx")) (RegexUnion (Str2Reg "y") (Str2Reg "z"))) (RegexConcat (RegexStar (RegexStar (Str2Reg "A"))) (RegexConcat (RegexPlus (RegexUnion (Str2Reg "BB") (Str2Reg "CC"))) (RegexConcat (RegexPlus (RegexPlus (Str2Reg "DDD"))) (RegexConcat (RegexPlus (RegexUnion (Str2Reg "EEE") (Str2Reg "FFF"))) (RegexConcat (RegexPlus (RegexUnion (Str2Reg "G") (Str2Reg "HH"))) (RegexConcat (RegexPlus (RegexPlus (Str2Reg "II"))) (RegexConcat (RegexUnion (RegexUnion (Str2Reg "JJJ") (Str2Reg "K")) (RegexUnion (Str2Reg "L") (Str2Reg "M"))) (RegexConcat (RegexPlus (RegexStar (Str2Reg "NNN"))) (RegexConcat (RegexPlus (RegexUnion (Str2Reg "O") (Str2Reg "P"))) (RegexConcat (RegexPlus (RegexPlus (Str2Reg "QQQ"))) (RegexConcat (RegexStar (RegexPlus (Str2Reg "RR"))) (RegexConcat (RegexUnion (RegexUnion (Str2Reg "SS") (Str2Reg "T")) (RegexUnion (Str2Reg "U") (Str2Reg "VVV"))) (RegexConcat (RegexPlus (RegexUnion (Str2Reg "W") (Str2Reg "XXX"))) (RegexConcat (RegexStar (RegexUnion (Str2Reg "Y") (Str2Reg "ZZ"))) (RegexConcat (RegexPlus (RegexPlus (Str2Reg "!"))) (RegexConcat (RegexStar (RegexPlus (Str2Reg "\""))) (RegexConcat (RegexPlus (RegexStar (Str2Reg "##"))) (RegexConcat (RegexStar (RegexStar (Str2Reg "$$$"))) (RegexConcat (RegexPlus (RegexPlus (Str2Reg "%"))) (RegexConcat (RegexUnion (RegexStar (Str2Reg "&&")) (RegexStar (Str2Reg "''"))) (RegexConcat (RegexPlus (RegexPlus (Str2Reg "(("))) (RegexConcat (RegexPlus (RegexPlus (Str2Reg ")"))) (RegexConcat (RegexPlus (RegexStar (Str2Reg "*"))) (RegexConcat (RegexPlus (RegexStar (Str2Reg "+++"))) (RegexConcat (RegexPlus (RegexStar (Str2Reg ","))) (RegexConcat (RegexPlus (RegexPlus (Str2Reg "-"))) (RegexConcat (RegexPlus (RegexUnion (Str2Reg "...") (Str2Reg "/"))) (RegexConcat (RegexUnion (RegexStar (Str2Reg ":")) (RegexStar (Str2Reg ";;"))) (RegexConcat (RegexPlus (RegexUnion (Str2Reg "<<<") (Str2Reg "==="))) (RegexConcat (RegexUnion (RegexPlus (Str2Reg ">>")) (RegexPlus (Str2Reg "???"))) (RegexConcat (RegexUnion (RegexPlus (Str2Reg "@")) (RegexPlus (Str2Reg "[[["))) (RegexConcat (RegexUnion (RegexStar (Str2Reg "\\")) (RegexStar (Str2Reg "]]"))) (RegexConcat (RegexStar (RegexUnion (Str2Reg "^^^") (Str2Reg "_"))) (RegexConcat (RegexStar (RegexPlus (Str2Reg "`"))) (RegexConcat (RegexStar (RegexStar (Str2Reg "{{{"))) (RegexConcat (RegexUnion (RegexPlus (Str2Reg "|||")) (RegexPlus (Str2Reg "}}"))) (RegexConcat (RegexPlus (RegexStar (Str2Reg "~~"))) (RegexConcat (RegexUnion (RegexStar (Str2Reg "00")) (RegexStar (Str2Reg "11"))) (RegexConcat (RegexUnion (RegexStar (Str2Reg "22")) (RegexStar (Str2Reg "33"))) (RegexUnion (RegexPlus (Str2Reg "44")) (RegexPlus (Str2Reg "55"))))))))))))))))))))))))))))))))))))))))))))))))))))))))))))))))))
(check-sat)